%mem=1GB
%nprocshared=12

# CCSD/aug-cc-pVDZ

TitleMe

1 2
He 0. 0. 0.0




