%mem=1GB
%nprocshared=12

# CCSD/aug-cc-pVDZ

TitleMe

0 1
He 0. 0. 0.0




