%mem=1GB
%nprocshared=12

# CCSD/aug-cc-pVDZ

TitleMe

0 1
Li 0. 0. 0.0
H  0. 0. 1.65




