%mem=1GB
%nprocshared=12

# wB97XD/aug-cc-pVQZ

He

0 1
H 0.0 0.0 0.0
H 0.79 0.0 0.0




