%mem=1GB
%nprocshared=12

# CCSD/aug-cc-pVDZ

TitleMe

1 2
H 0. 0. -1.0
H 0. 0. 1.0




