%mem=1GB
%nprocshared=12

# CCSD/cc-pVDZ

He+

1 2
He 0.0 0.0 0.0




