%mem=1GB
%nprocshared=12

# CCSD/cc-pVDZ

He

0 1
He 0.0 0.0 0.0




